(set-option :produce-models true); benchmark generated from python API
(set-info :status unknown)
(declare-fun l_1_0_8 () Real)
(declare-fun l_1_0_7 () Real)
(declare-fun l_1_0_6 () Real)
(declare-fun l_1_0_5 () Real)
(declare-fun l_1_0_4 () Real)
(declare-fun l_1_0_3 () Real)
(declare-fun l_1_0_2 () Real)
(declare-fun l_1_0_11 () Real)
(declare-fun l_1_0_10 () Real)
(declare-fun l_1_0_1 () Real)
(declare-fun _a_0_ () Real)
(declare-fun l_1_0_9 () Real)
(declare-fun _a_1_ () Real)
(declare-fun l_1_1_16 () Real)
(declare-fun l_1_1_15 () Real)
(declare-fun l_1_1_9 () Real)
(declare-fun l_1_1_7 () Real)
(declare-fun l_1_1_6 () Real)
(declare-fun l_1_1_5 () Real)
(declare-fun l_1_1_13 () Real)
(declare-fun l_1_1_3 () Real)
(declare-fun l_1_1_8 () Real)
(declare-fun l_1_1_11 () Real)
(declare-fun l_1_1_10 () Real)
(declare-fun l_1_1_1 () Real)
(declare-fun l_1_1_4 () Real)
(declare-fun l_1_1_2 () Real)
(declare-fun l_1_1_17 () Real)
(declare-fun l_1_1_14 () Real)
(declare-fun l_1_1_12 () Real)
(declare-fun l_1_2_1 () Real)
(declare-fun l_1_2_2 () Real)
(declare-fun l_1_2_3 () Real)
(declare-fun l_1_2_4 () Real)
(declare-fun l_1_2_5 () Real)
(declare-fun l_1_2_6 () Real)
(declare-fun l_1_2_7 () Real)
(declare-fun l_1_2_8 () Real)
(declare-fun l_1_2_9 () Real)
(declare-fun l_1_2_10 () Real)
(declare-fun l_1_2_11 () Real)
(declare-fun l_1_2_12 () Real)
(declare-fun l_1_2_13 () Real)
(declare-fun l_1_2_14 () Real)
(declare-fun l_1_2_15 () Real)
(declare-fun l_1_2_17 () Real)
(assert
 (let ((?x285 (* l_1_0_11 l_1_0_11)))
 (let ((?x25 (- (- (- (- _a_0_ l_1_0_1) (* l_1_0_10 l_1_0_10)) ?x285) (* 1.0 l_1_0_2))))
 (let ((?x21 (- (- (- (- ?x25 (* 1.0 l_1_0_3)) l_1_0_4) (* 1.0 l_1_0_5)) l_1_0_6)))
 (= (- (- ?x21 (* 1.0 l_1_0_7)) l_1_0_8) 0.0)))))
(assert
 (= (- _a_1_ (* (* 2.0 l_1_0_10) l_1_0_9)) 0.0))
(assert
 (let ((?x134 (* l_1_0_9 l_1_0_9)))
 (let ((?x135 (- (+ (+ (+ l_1_0_2 l_1_0_3) l_1_0_5) (* 2.0 l_1_0_7)) ?x134)))
 (= (- ?x135 1.0) 0.0))))
(assert
 (= (- l_1_0_7) 0.0))
(assert
 (>= l_1_0_1 0.0))
(assert
 (>= l_1_0_2 0.0))
(assert
 (>= l_1_0_3 0.0))
(assert
 (>= l_1_0_4 0.0))
(assert
 (>= l_1_0_5 0.0))
(assert
 (>= l_1_0_6 0.0))
(assert
 (>= l_1_0_7 0.0))
(assert
 (>= l_1_0_8 0.0))
(assert
 (>= l_1_0_9 0.0))
(assert
 (>= l_1_0_11 0.0))
(assert
 (let ((?x82 (* _a_1_ l_1_1_7)))
 (let ((?x105 (* _a_1_ l_1_1_5)))
 (let ((?x103 (* _a_1_ l_1_1_13)))
 (let ((?x11 (+ (- (- (* (* (* (- 2.0) _a_0_) _a_1_) l_1_1_3) ?x103) ?x105) (* (* 9.0 _a_1_) l_1_1_6))))
 (let ((?x35 (- (+ (- ?x11 ?x82) (* (* 9.0 _a_1_) l_1_1_9)) (* (* 2.0 l_1_1_15) l_1_1_16))))
 (= (+ ?x35 8.0) 0.0)))))))
(assert
 (let ((?x96 (* l_1_1_15 l_1_1_15)))
 (let ((?x97 (- (+ (+ (- (- l_1_1_1) l_1_1_10) (* 18.0 l_1_1_11)) l_1_1_13) ?x96)))
 (let ((?x142 (+ (- ?x97 (* l_1_1_3 (+ (* (- 2.0) _a_0_) (* _a_1_ _a_1_)))) l_1_1_5)))
 (let ((?x211 (- (- (+ (- ?x142 (* l_1_1_6 (+ _a_0_ 9.0))) l_1_1_7) l_1_1_8) (* l_1_1_9 (+ _a_0_ 9.0)))))
 (= (- ?x211 1.0) 0.0))))))
(assert
 (let ((?x330 (* 9.0 l_1_1_8)))
 (let ((?x324 (* l_1_1_17 l_1_1_17)))
 (let ((?x322 (* l_1_1_16 l_1_1_16)))
 (let ((?x318 (* 81.0 l_1_1_11)))
 (let ((?x315 (* 9.0 l_1_1_10)))
 (let ((?x313 (* 9.0 l_1_1_1)))
 (let ((?x309 (* _a_0_ l_1_1_7)))
 (let ((?x308 (+ (- (* (- _a_0_) l_1_1_13) (* _a_0_ l_1_1_5)) (* (* 9.0 _a_0_) l_1_1_6))))
 (let ((?x316 (+ (+ (+ (- ?x308 ?x309) (* (* 9.0 _a_0_) l_1_1_9)) ?x313) ?x315)))
 (let ((?x326 (- (- (- (- (- (- ?x316 ?x318) l_1_1_12) l_1_1_14) ?x322) ?x324) l_1_1_2)))
 (let ((?x332 (- (+ (- (- ?x326 (* (* l_1_1_3 _a_0_) _a_0_)) l_1_1_4) ?x330) 15.0)))
 (= ?x332 0.0)))))))))))))
(assert
 (let ((?x234 (* _a_1_ l_1_1_9)))
 (= (- (- (* (* 2.0 _a_1_) l_1_1_3) (* _a_1_ l_1_1_6)) ?x234) 0.0)))
(assert
 (= (+ (+ (- (- l_1_1_11) l_1_1_3) l_1_1_6) l_1_1_9) 0.0))
(assert
 (>= l_1_1_1 0.0))
(assert
 (>= l_1_1_2 0.0))
(assert
 (>= l_1_1_3 0.0))
(assert
 (>= l_1_1_4 0.0))
(assert
 (>= l_1_1_5 0.0))
(assert
 (>= l_1_1_6 0.0))
(assert
 (>= l_1_1_7 0.0))
(assert
 (>= l_1_1_8 0.0))
(assert
 (>= l_1_1_9 0.0))
(assert
 (>= l_1_1_10 0.0))
(assert
 (>= l_1_1_11 0.0))
(assert
 (>= l_1_1_12 0.0))
(assert
 (>= l_1_1_13 0.0))
(assert
 (>= l_1_1_14 0.0))
(assert
 (>= l_1_1_15 0.0))
(assert
 (>= l_1_1_17 0.0))
(assert
 false)
(assert
 (>= l_1_2_1 0.0))
(assert
 (>= l_1_2_2 0.0))
(assert
 (>= l_1_2_3 0.0))
(assert
 (>= l_1_2_4 0.0))
(assert
 (>= l_1_2_5 0.0))
(assert
 (>= l_1_2_6 0.0))
(assert
 (>= l_1_2_7 0.0))
(assert
 (>= l_1_2_8 0.0))
(assert
 (>= l_1_2_9 0.0))
(assert
 (>= l_1_2_10 0.0))
(assert
 (>= l_1_2_11 0.0))
(assert
 (>= l_1_2_12 0.0))
(assert
 (>= l_1_2_13 0.0))
(assert
 (>= l_1_2_14 0.0))
(assert
 (>= l_1_2_15 0.0))
(assert
 (>= l_1_2_17 0.0))
(check-sat)
(get-model)